NAME: random-30-20618
TYPE: TSP
COMMENT: size=30 seed=20618
DIMENSION: 62
EDGE_WEIGHT_TYPE: EUC_2D
NODE_COORD_SECTION
+0 726 218
-0 726 218
+1 92 538
-1 249 192
+2 179 825
-2 91 247
+3 652 292
-3 972 967
+4 547 296
-4 585 650
+5 525 569
-5 641 625
+6 518 586
-6 470 950
+7 969 351
-7 50 510
+8 499 240
-8 708 945
+9 201 117
-9 671 174
+10 435 370
-10 221 444
+11 579 204
-11 23 958
+12 458 567
-12 77 251
+13 950 196
-13 495 669
+14 575 99
-14 878 598
+15 352 494
-15 614 513
+16 744 106
-16 697 254
+17 877 154
-17 183 18
+18 766 907
-18 36 27
+19 487 544
-19 750 82
+20 721 244
-20 153 100
+21 559 97
-21 77 140
+22 636 124
-22 408 209
+23 751 522
-23 747 814
+24 576 816
-24 540 84
+25 152 737
-25 391 332
+26 323 702
-26 418 739
+27 399 453
-27 403 842
+28 612 995
-28 129 597
+29 538 840
-29 679 833
+30 908 559
-30 625 917
PRECEDENCE_SECTION
+0 -0
+1 -1
+2 -2
+3 -3
+4 -4
+5 -5
+6 -6
+7 -7
+8 -8
+9 -9
+10 -10
+11 -11
+12 -12
+13 -13
+14 -14
+15 -15
+16 -16
+17 -17
+18 -18
+19 -19
+20 -20
+21 -21
+22 -22
+23 -23
+24 -24
+25 -25
+26 -26
+27 -27
+28 -28
+29 -29
+30 -30
EOF
